[runlim] version:		2.0.0rc12
[runlim] host:			ap-Precision-7550
[runlim] time limit:		311040000 seconds
[runlim] real time limit:	600 seconds
[runlim] space limit:		14000 MB
[runlim] argv[0]:		python3
[runlim] argv[1]:		-u
[runlim] argv[2]:		evalmaxsat_no_processing.py
[runlim] argv[3]:		graph06
[runlim] argv[4]:		POSE
[runlim] start:			Tue Jun 30 14:06:05 2026
[runlim] child:			13104
[INFO] Generating WCNF for graph06 (POSE)
[INFO] Solving wcnf/no_preprocessing/POSE/graph06_POSE.wcnf
s UNSATISFIABLE
c Total time : 0.0493218s
[INFO] Decode summary
[INFO] status=UNSATISFIABLE, objective=None, assigned_vars=0, complete=False, labels_used=0
[INFO] Decoded assignment file: results/no_preprocessing/decode/POSE/graph06.decoded.txt
Time taken: 0.43 seconds
[runlim] end:			Tue Jun 30 14:06:06 2026
[runlim] status:		ok
[runlim] result:		0
[runlim] children:		1
[runlim] processes:		2
[runlim] real:			0.47 seconds
[runlim] time:			0.41 seconds
[runlim] space:			40 MB
[runlim] load:			1.09 maximum
[runlim] samples:		5
